(set-logic QF_UFIDL)
(declare-fun ff.add (Int Int) Int)
(declare-fun ff.mul (Int Int) Int)
(declare-fun v_0 () Int)
(declare-fun v_5 () Int)
(declare-fun v_1 () Int)
(declare-fun v_4 () Int)
(declare-fun v_2 () Int)
(declare-fun v_3 () Int)
(assert (let ((.def_0 (= v_5 v_4))) (let ((.def_1 (ff.add v_2 1))) (let ((.def_2 (= v_4 .def_1))) (let ((.def_3 (= v_2 v_3))) (let ((.def_4 (ff.mul 2 v_0))) (let ((.def_5 (= v_3 .def_4))) (let ((.def_6 (and .def_5 .def_3))) (let ((.def_7 (ff.mul v_0 1))) (let ((.def_8 (= v_2 .def_7))) (let ((.def_9 (= v_1 1))) (let ((.def_10 (ite .def_9 .def_8 .def_6))) (let ((.def_11 (and .def_10 .def_2))) (let ((.def_12 (= v_1 0))) (let ((.def_13 (= v_0 10))) (let ((.def_14 (ite .def_13 .def_9 .def_12))) (let ((.def_15 (and .def_14 .def_11))) (let ((.def_16 (and .def_15 .def_0))) .def_16))))))))))))))))))
(check-sat)
